(set-logic ALL)
(declare-fun var0 () String)
(assert (str.in_re var0 (re.++ (re.* (re.+ (str.to_re "000"))) (re.++ (re.* (re.* (str.to_re "111"))) (re.++ (re.* (re.union (str.to_re "22") (str.to_re "3"))) (re.++ (re.+ (re.union (str.to_re "44") (str.to_re "5"))) (re.++ (re.union (re.+ (str.to_re "666")) (re.+ (str.to_re "7"))) (re.++ (re.* (re.union (str.to_re "888") (str.to_re "999"))) (re.++ (re.union (re.* (str.to_re "aa")) (re.* (str.to_re "bbb"))) (re.++ (re.* (re.* (str.to_re "cc"))) (re.++ (re.+ (re.union (str.to_re "d") (str.to_re "ee"))) (re.++ (re.+ (re.union (str.to_re "f") (str.to_re "gg"))) (re.++ (re.* (re.union (str.to_re "hhh") (str.to_re "ii"))) (re.++ (re.* (re.union (str.to_re "jj") (str.to_re "kk"))) (re.++ (re.union (re.+ (str.to_re "l")) (re.+ (str.to_re "m"))) (re.++ (re.+ (re.union (str.to_re "n") (str.to_re "ooo"))) (re.++ (re.* (re.union (str.to_re "pp") (str.to_re "qq"))) (re.++ (re.* (re.union (str.to_re "rrr") (str.to_re "s"))) (re.++ (re.* (re.+ (str.to_re "ttt"))) (re.++ (re.union (re.+ (str.to_re "uuu")) (re.+ (str.to_re "v"))) (re.++ (re.+ (re.+ (str.to_re "ww"))) (re.++ (re.* (re.+ (str.to_re "xxx"))) (re.++ (re.* (re.+ (str.to_re "yyy"))) (re.++ (re.* (re.* (str.to_re "zzz"))) (re.++ (re.union (re.* (str.to_re "A")) (re.* (str.to_re "BBB"))) (re.++ (re.union (re.+ (str.to_re "CC")) (re.+ (str.to_re "DDD"))) (re.++ (re.union (re.union (str.to_re "EEE") (str.to_re "F")) (re.union (str.to_re "G") (str.to_re "H"))) (re.++ (re.+ (re.* (str.to_re "III"))) (re.++ (re.union (re.union (str.to_re "J") (str.to_re "K")) (re.union (str.to_re "LLL") (str.to_re "MM"))) (re.++ (re.+ (re.union (str.to_re "NN") (str.to_re "OO"))) (re.++ (re.union (re.+ (str.to_re "PP")) (re.+ (str.to_re "QQ"))) (re.++ (re.+ (re.+ (str.to_re "RR"))) (re.++ (re.* (re.union (str.to_re "SS") (str.to_re "TTT"))) (re.++ (re.* (re.* (str.to_re "UU"))) (re.++ (re.+ (re.* (str.to_re "VVV"))) (re.++ (re.* (re.* (str.to_re "W"))) (re.+ (re.+ (str.to_re "X")))))))))))))))))))))))))))))))))))))))
(check-sat)